p edge 100 1109 83
e 1 5
e 1 9
e 1 10
e 1 16
e 1 17
e 1 32
e 1 33
e 1 38
e 1 40
e 1 43
e 1 48
e 1 50
e 1 51
e 1 53
e 1 57
e 1 59
e 1 62
e 1 69
e 1 75
e 1 76
e 1 86
e 1 87
e 1 93
e 1 98
e 2 8
e 2 11
e 2 16
e 2 18
e 2 19
e 2 21
e 2 24
e 2 33
e 2 34
e 2 37
e 2 56
e 2 68
e 2 69
e 2 70
e 2 72
e 2 74
e 2 84
e 2 85
e 2 87
e 2 91
e 3 7
e 3 11
e 3 14
e 3 24
e 3 26
e 3 31
e 3 36
e 3 44
e 3 47
e 3 63
e 3 68
e 3 73
e 3 74
e 3 76
e 3 78
e 3 80
e 3 81
e 3 83
e 3 85
e 3 87
e 3 91
e 3 96
e 3 97
e 4 5
e 4 13
e 4 20
e 4 35
e 4 38
e 4 42
e 4 45
e 4 50
e 4 53
e 4 59
e 4 60
e 4 62
e 4 69
e 4 72
e 4 76
e 4 80
e 4 82
e 4 83
e 4 89
e 4 91
e 5 7
e 5 10
e 5 11
e 5 16
e 5 18
e 5 21
e 5 24
e 5 30
e 5 33
e 5 34
e 5 44
e 5 58
e 5 63
e 5 69
e 5 72
e 5 83
e 5 85
e 5 87
e 6 8
e 6 9
e 6 10
e 6 20
e 6 22
e 6 24
e 6 25
e 6 26
e 6 32
e 6 36
e 6 37
e 6 41
e 6 42
e 6 45
e 6 47
e 6 50
e 6 59
e 6 62
e 6 64
e 6 67
e 6 69
e 6 70
e 6 71
e 6 74
e 6 79
e 6 81
e 6 84
e 6 85
e 6 86
e 6 87
e 6 89
e 6 94
e 6 97
e 6 99
e 6 100
e 7 22
e 7 27
e 7 28
e 7 39
e 7 41
e 7 42
e 7 46
e 7 49
e 7 53
e 7 59
e 7 62
e 7 67
e 7 68
e 7 69
e 7 70
e 7 92
e 7 97
e 7 99
e 8 10
e 8 12
e 8 17
e 8 35
e 8 37
e 8 40
e 8 41
e 8 43
e 8 57
e 8 59
e 8 61
e 8 69
e 8 72
e 8 73
e 8 81
e 8 89
e 8 91
e 8 92
e 8 97
e 9 10
e 9 11
e 9 15
e 9 16
e 9 32
e 9 38
e 9 41
e 9 47
e 9 48
e 9 50
e 9 53
e 9 62
e 9 63
e 9 73
e 9 74
e 9 82
e 9 85
e 9 86
e 9 98
e 10 12
e 10 13
e 10 15
e 10 16
e 10 23
e 10 25
e 10 28
e 10 38
e 10 39
e 10 48
e 10 49
e 10 50
e 10 55
e 10 60
e 10 62
e 10 73
e 10 78
e 10 80
e 10 94
e 10 95
e 10 96
e 11 16
e 11 17
e 11 18
e 11 24
e 11 30
e 11 31
e 11 34
e 11 37
e 11 43
e 11 52
e 11 55
e 11 59
e 11 69
e 11 79
e 11 84
e 11 86
e 11 89
e 11 91
e 11 93
e 11 99
e 12 13
e 12 17
e 12 19
e 12 20
e 12 29
e 12 31
e 12 32
e 12 33
e 12 35
e 12 36
e 12 39
e 12 44
e 12 48
e 12 49
e 12 51
e 12 66
e 12 67
e 12 70
e 12 75
e 12 79
e 12 83
e 12 86
e 12 98
e 13 16
e 13 17
e 13 25
e 13 28
e 13 37
e 13 40
e 13 42
e 13 45
e 13 46
e 13 51
e 13 61
e 13 64
e 13 66
e 13 69
e 13 70
e 13 71
e 13 73
e 13 80
e 13 81
e 13 91
e 13 97
e 13 99
e 13 100
e 14 18
e 14 21
e 14 23
e 14 28
e 14 31
e 14 32
e 14 38
e 14 46
e 14 48
e 14 56
e 14 69
e 14 73
e 14 74
e 14 76
e 14 77
e 14 80
e 14 83
e 14 84
e 14 87
e 14 94
e 14 97
e 15 16
e 15 24
e 15 27
e 15 29
e 15 42
e 15 43
e 15 44
e 15 45
e 15 47
e 15 48
e 15 61
e 15 64
e 15 75
e 15 83
e 15 89
e 15 94
e 16 18
e 16 32
e 16 33
e 16 45
e 16 52
e 16 61
e 16 63
e 16 64
e 16 66
e 16 72
e 16 75
e 16 77
e 16 80
e 16 85
e 16 86
e 16 89
e 17 20
e 17 27
e 17 33
e 17 37
e 17 51
e 17 54
e 17 55
e 17 63
e 17 67
e 17 80
e 17 81
e 17 85
e 17 92
e 17 98
e 18 19
e 18 22
e 18 23
e 18 26
e 18 35
e 18 36
e 18 45
e 18 48
e 18 49
e 18 50
e 18 55
e 18 62
e 18 63
e 18 65
e 18 67
e 18 73
e 18 77
e 18 87
e 18 99
e 18 100
e 19 21
e 19 24
e 19 25
e 19 26
e 19 27
e 19 28
e 19 32
e 19 40
e 19 46
e 19 55
e 19 56
e 19 59
e 19 61
e 19 79
e 19 81
e 19 83
e 19 87
e 19 94
e 19 95
e 20 27
e 20 29
e 20 32
e 20 36
e 20 37
e 20 39
e 20 41
e 20 48
e 20 51
e 20 56
e 20 70
e 20 71
e 20 75
e 20 81
e 20 83
e 20 84
e 20 86
e 20 95
e 20 97
e 21 22
e 21 24
e 21 27
e 21 28
e 21 43
e 21 44
e 21 46
e 21 48
e 21 49
e 21 51
e 21 53
e 21 62
e 21 71
e 21 82
e 21 87
e 22 26
e 22 33
e 22 36
e 22 40
e 22 41
e 22 42
e 22 43
e 22 55
e 22 72
e 22 80
e 22 82
e 22 90
e 22 95
e 22 99
e 22 100
e 23 30
e 23 37
e 23 38
e 23 44
e 23 45
e 23 47
e 23 52
e 23 59
e 23 67
e 23 83
e 23 85
e 23 88
e 23 90
e 23 91
e 23 94
e 23 98
e 24 26
e 24 28
e 24 31
e 24 37
e 24 40
e 24 47
e 24 53
e 24 59
e 24 60
e 24 68
e 24 69
e 24 74
e 24 90
e 24 94
e 24 97
e 24 100
e 25 34
e 25 41
e 25 60
e 25 73
e 25 74
e 25 76
e 25 77
e 25 80
e 25 84
e 25 89
e 25 97
e 25 98
e 25 100
e 26 27
e 26 31
e 26 38
e 26 40
e 26 46
e 26 54
e 26 58
e 26 59
e 26 60
e 26 61
e 26 64
e 26 68
e 26 70
e 26 72
e 26 76
e 26 83
e 26 89
e 26 92
e 27 29
e 27 38
e 27 41
e 27 43
e 27 49
e 27 50
e 27 51
e 27 52
e 27 53
e 27 56
e 27 65
e 27 68
e 27 80
e 27 81
e 27 83
e 27 85
e 27 90
e 27 96
e 27 98
e 27 99
e 28 29
e 28 30
e 28 35
e 28 36
e 28 40
e 28 42
e 28 50
e 28 52
e 28 53
e 28 57
e 28 63
e 28 66
e 28 68
e 28 71
e 28 74
e 28 77
e 28 82
e 28 85
e 28 87
e 28 90
e 28 93
e 28 97
e 29 30
e 29 33
e 29 41
e 29 43
e 29 44
e 29 47
e 29 52
e 29 56
e 29 59
e 29 60
e 29 68
e 29 70
e 29 71
e 29 74
e 29 86
e 29 91
e 29 93
e 29 96
e 29 97
e 29 99
e 29 100
e 30 33
e 30 47
e 30 49
e 30 51
e 30 52
e 30 60
e 30 68
e 30 71
e 30 75
e 30 79
e 30 80
e 30 87
e 30 92
e 30 93
e 30 97
e 31 32
e 31 42
e 31 46
e 31 48
e 31 56
e 31 59
e 31 66
e 31 69
e 31 73
e 31 82
e 31 84
e 31 87
e 31 89
e 31 91
e 31 92
e 31 95
e 31 100
e 32 48
e 32 50
e 32 59
e 32 60
e 32 61
e 32 63
e 32 64
e 32 66
e 32 68
e 32 76
e 32 83
e 32 84
e 32 92
e 32 93
e 32 94
e 33 35
e 33 39
e 33 49
e 33 50
e 33 51
e 33 53
e 33 56
e 33 60
e 33 64
e 33 66
e 33 70
e 33 73
e 33 74
e 33 76
e 33 77
e 33 78
e 33 79
e 33 86
e 33 90
e 33 91
e 33 92
e 33 93
e 33 96
e 33 97
e 33 98
e 34 37
e 34 38
e 34 43
e 34 44
e 34 46
e 34 49
e 34 57
e 34 61
e 34 66
e 34 74
e 34 76
e 34 77
e 34 79
e 34 83
e 34 87
e 34 94
e 34 96
e 35 54
e 35 57
e 35 61
e 35 66
e 35 72
e 35 74
e 35 79
e 35 89
e 35 93
e 35 94
e 36 40
e 36 42
e 36 43
e 36 45
e 36 47
e 36 48
e 36 55
e 36 63
e 36 75
e 36 82
e 36 83
e 36 88
e 36 90
e 36 98
e 36 100
e 37 38
e 37 39
e 37 41
e 37 56
e 37 58
e 37 59
e 37 60
e 37 65
e 37 76
e 37 79
e 37 84
e 37 93
e 37 98
e 38 39
e 38 51
e 38 56
e 38 58
e 38 59
e 38 60
e 38 67
e 38 70
e 38 71
e 38 74
e 38 92
e 38 93
e 38 97
e 38 99
e 39 41
e 39 42
e 39 46
e 39 54
e 39 56
e 39 64
e 39 70
e 39 78
e 39 79
e 39 84
e 39 89
e 39 94
e 39 99
e 40 42
e 40 50
e 40 53
e 40 55
e 40 56
e 40 57
e 40 58
e 40 72
e 40 73
e 40 87
e 40 94
e 40 98
e 40 100
e 41 45
e 41 60
e 41 62
e 41 81
e 41 88
e 41 90
e 41 91
e 41 97
e 41 99
e 41 100
e 42 43
e 42 44
e 42 46
e 42 48
e 42 52
e 42 60
e 42 67
e 42 72
e 42 75
e 42 79
e 42 81
e 42 86
e 42 91
e 42 92
e 42 97
e 43 46
e 43 50
e 43 51
e 43 55
e 43 57
e 43 63
e 43 68
e 43 69
e 43 70
e 43 72
e 43 74
e 43 75
e 43 80
e 43 81
e 43 94
e 43 98
e 44 46
e 44 50
e 44 59
e 44 62
e 44 64
e 44 68
e 44 70
e 44 75
e 44 85
e 44 88
e 44 90
e 44 95
e 44 96
e 45 52
e 45 54
e 45 59
e 45 63
e 45 64
e 45 65
e 45 76
e 45 78
e 45 95
e 46 48
e 46 52
e 46 54
e 46 56
e 46 63
e 46 64
e 46 65
e 46 67
e 46 87
e 46 93
e 46 95
e 47 49
e 47 53
e 47 57
e 47 62
e 47 68
e 47 78
e 47 86
e 47 87
e 47 92
e 47 96
e 47 99
e 48 51
e 48 58
e 48 74
e 48 80
e 48 83
e 48 85
e 48 90
e 48 97
e 49 57
e 49 63
e 49 77
e 49 86
e 49 88
e 49 91
e 49 93
e 49 96
e 50 58
e 50 70
e 50 74
e 50 75
e 50 76
e 50 78
e 50 82
e 50 83
e 51 53
e 51 54
e 51 67
e 51 68
e 51 74
e 51 75
e 51 76
e 51 89
e 51 90
e 51 91
e 51 92
e 51 93
e 51 95
e 51 97
e 52 54
e 52 55
e 52 66
e 52 67
e 52 70
e 52 71
e 52 78
e 52 80
e 52 84
e 52 87
e 52 88
e 52 93
e 52 98
e 53 56
e 53 60
e 53 66
e 53 71
e 53 76
e 53 78
e 53 84
e 53 85
e 53 87
e 53 89
e 53 90
e 53 98
e 54 56
e 54 61
e 54 62
e 54 63
e 54 88
e 54 94
e 54 96
e 55 58
e 55 64
e 55 73
e 55 94
e 55 98
e 56 60
e 56 68
e 56 73
e 56 75
e 56 81
e 56 83
e 56 84
e 56 89
e 56 91
e 56 95
e 56 99
e 57 58
e 57 60
e 57 63
e 57 66
e 57 69
e 57 70
e 57 74
e 57 78
e 57 83
e 57 89
e 57 94
e 57 98
e 57 99
e 57 100
e 58 63
e 58 70
e 58 89
e 58 95
e 58 96
e 59 62
e 59 63
e 59 64
e 59 66
e 59 68
e 59 71
e 59 75
e 59 78
e 59 83
e 59 87
e 59 90
e 59 91
e 59 94
e 59 98
e 60 68
e 60 69
e 60 73
e 60 77
e 60 78
e 60 85
e 60 91
e 60 92
e 60 98
e 61 62
e 61 84
e 61 86
e 61 88
e 61 92
e 61 93
e 61 94
e 61 95
e 61 96
e 62 67
e 62 70
e 62 77
e 62 82
e 62 91
e 62 95
e 62 98
e 62 99
e 63 68
e 63 72
e 63 81
e 63 84
e 63 90
e 63 95
e 63 99
e 64 79
e 64 80
e 64 82
e 64 87
e 64 88
e 64 93
e 65 67
e 65 71
e 65 76
e 65 77
e 65 79
e 65 86
e 65 87
e 65 88
e 65 96
e 65 97
e 65 100
e 66 67
e 66 70
e 66 94
e 66 99
e 67 69
e 67 71
e 67 73
e 67 74
e 67 84
e 67 86
e 67 91
e 67 92
e 68 72
e 68 74
e 68 75
e 68 77
e 68 81
e 68 85
e 68 87
e 69 72
e 69 73
e 69 85
e 69 86
e 69 93
e 70 71
e 70 74
e 70 78
e 70 95
e 70 97
e 70 99
e 70 100
e 71 72
e 71 73
e 71 76
e 71 78
e 71 88
e 71 96
e 71 100
e 72 80
e 72 83
e 72 84
e 72 86
e 73 75
e 73 79
e 73 83
e 73 84
e 73 85
e 73 86
e 74 78
e 74 80
e 74 85
e 74 89
e 74 90
e 74 95
e 75 79
e 75 83
e 75 94
e 75 95
e 76 78
e 76 86
e 76 88
e 76 92
e 77 80
e 77 81
e 77 82
e 77 83
e 77 87
e 77 89
e 77 91
e 77 99
e 78 89
e 78 97
e 78 98
e 79 82
e 79 83
e 79 99
e 80 86
e 80 93
e 80 97
e 80 98
e 80 99
e 81 82
e 82 84
e 82 88
e 82 96
e 82 97
e 82 98
e 83 88
e 83 94
e 83 98
e 83 100
e 84 92
e 84 93
e 84 94
e 85 86
e 85 89
e 85 98
e 86 87
e 86 89
e 86 92
e 86 96
e 86 98
e 87 89
e 87 100
e 88 89
e 88 90
e 88 95
e 88 96
e 88 97
e 89 96
e 89 97
e 90 91
e 90 92
e 90 94
e 90 95
e 90 97
e 91 93
e 91 96
e 92 97
e 93 96
e 93 97
e 93 99
e 94 96
e 95 97
